TOUR_SECTION
1
138
48
20
32
116
161
88
169
184
144
172
23
134
90
175
127
173
65
171
163
107
43
6
55
153
69
45
198
112
165
50
49
84
142
136
118
102
13
170
108
129
36
46
182
9
143
156
86
197
151
71
111
2
52
57
135
11
68
140
180
10
149
201
123
58
194
187
29
14
154
183
59
195
126
164
104
133
66
106
30
155
92
17
200
110
75
162
83
120
82
174
24
18
37
25
121
157
185
168
181
47
190
73
115
159
33
7
130
89
67
199
21
94
5
93
85
74
150
96
80
101
81
91
131
22
177
15
160
41
114
64
137
100
31
35
128
148
87
19
72
122
28
178
79
27
167
146
78
26
99
196
105
147
40
53
166
54
119
61
8
95
193
77
124
38
141
158
139
39
191
186
44
97
70
62
42
3
176
189
34
56
12
4
145
16
63
192
98
109
51
103
76
125
132
152
60
179
113
117
188
-1
EOF